Version identifier: 22.1.0.0 | 2022-03-09 | 1a383f8ce
CPXPARAM_Read_DataCheck                          1
Tried aggregator 3 times.
MIP Presolve eliminated 221 rows and 98 columns.
MIP Presolve modified 9 coefficients.
Aggregator did 129 substitutions.
Reduced MIP has 80 rows, 136 columns, and 335 nonzeros.
Reduced MIP has 132 binaries, 4 generals, 0 SOSs, and 0 indicators.
Presolve time = 0.00 sec. (0.97 ticks)
Found incumbent of value 7.000000 after 0.00 sec. (1.50 ticks)
Probing fixed 4 vars, tightened 0 bounds.
Probing time = 0.00 sec. (0.17 ticks)
Tried aggregator 2 times.
Detecting symmetries...
MIP Presolve eliminated 5 rows and 9 columns.
Aggregator did 4 substitutions.
Reduced MIP has 71 rows, 123 columns, and 304 nonzeros.
Reduced MIP has 117 binaries, 6 generals, 0 SOSs, and 0 indicators.
Presolve time = 0.00 sec. (0.41 ticks)
Probing time = 0.00 sec. (0.08 ticks)
Cover probing fixed 0 vars, tightened 2 bounds.
Clique table members: 224.
MIP emphasis: balance optimality and feasibility.
MIP search method: dynamic search.
Parallel mode: deterministic, using up to 8 threads.
Root relaxation solution time = 0.00 sec. (0.23 ticks)

        Nodes                                         Cuts/
   Node  Left     Objective  IInf  Best Integer    Best Bound    ItCnt     Gap

*     0+    0                            7.0000        0.0000           100.00%
      0     0        4.4000    49        7.0000        4.4000       54   37.14%
      0     0        cutoff              7.0000                     84    0.00%
Elapsed time = 0.02 sec. (5.02 ticks, tree = 0.01 MB, solutions = 1)

Clique cuts applied:  3
Zero-half cuts applied:  9
Gomory fractional cuts applied:  3

Root node processing (before b&c):
  Real time             =    0.02 sec. (5.03 ticks)
Parallel b&c, 8 threads:
  Real time             =    0.00 sec. (0.00 ticks)
  Sync time (average)   =    0.00 sec.
  Wait time (average)   =    0.00 sec.
                          ------------
Total (root+branch&cut) =    0.02 sec. (5.03 ticks)
